data/solutions/recovery/wellformed/intermediate/binding/wellformed_intermediate_instance73/21.sol
Elapsed time: 0.05
Upper bound: 4534.0
Planning weighted value: 204976118.0
C[0]=4534.0
C[1]=4526.0
C[2]=4391.0
C[3]=4387.0
C[4]=4306.0
C[5]=3986.0
C[6]=3940.0
C[7]=3913.0
C[8]=3845.0
C[9]=3117.0
C[10]=3107.0
C[11]=3091.0
C[12]=3089.0
C[13]=2683.0
C[14]=1647.0
C[15]=0.0
y[0]=0
y[1]=6
y[2]=12
y[3]=2
y[4]=6
y[5]=12
y[6]=5
y[7]=7
y[8]=10
y[9]=3
y[10]=10
y[11]=14
y[12]=1
y[13]=9
y[14]=11
y[15]=10
y[16]=10
y[17]=10
y[18]=13
y[19]=14
y[20]=12
y[21]=6
y[22]=4
y[23]=4
y[24]=9
y[25]=0
y[26]=10
y[27]=10
y[28]=3
y[29]=7
y[30]=7
y[31]=8
y[32]=8
y[33]=3
y[34]=11
y[35]=10
y[36]=4
y[37]=3
y[38]=8
y[39]=0
y[40]=7
y[41]=9
y[42]=9
y[43]=6
y[44]=4
y[45]=0
y[46]=11
y[47]=6
y[48]=3
y[49]=4
y[50]=1
y[51]=2
y[52]=9
y[53]=4
y[54]=3
y[55]=2
y[56]=1
y[57]=5
y[58]=7
y[59]=14
y[60]=2
y[61]=8
y[62]=5
y[63]=3
y[64]=8
y[65]=0
y[66]=11
y[67]=14
y[68]=3
y[69]=13
y[70]=10
y[71]=8
y[72]=4
y[73]=9
y[74]=13
y[75]=5
y[76]=2
y[77]=0
y[78]=0
y[79]=5
y[80]=7
y[81]=1
y[82]=4
y[83]=13
y[84]=12
y[85]=11
y[86]=13
y[87]=11
y[88]=2
y[89]=5
y[90]=3
y[91]=0
y[92]=3
y[93]=14
y[94]=3
y[95]=9
y[96]=12
y[97]=5
y[98]=4
y[99]=0
y[100]=5
y[101]=13
y[102]=1
y[103]=6
y[104]=7
y[105]=2
y[106]=3
y[107]=8
