data/solutions/recovery/wellformed/intermediate/binding/wellformed_intermediate_instance73/21.log

Log started (V12.6.3.0) Fri Apr 20 17:50:09 2018

New value for default parallel thread count: 1

Problem '/tmp/tmpPXKbcs.pyomo.lp' read.
Read time = 0.03 sec. (2.18 ticks)

Problem name         : /tmp/tmpPXKbcs.pyomo.lp
Objective sense      : Minimize
Variables            :    1746  [Nneg: 1,  Binary: 1728,  General Integer: 17]
Objective nonzeros   :       1
Linear constraints   :     250  [Less: 124,  Equal: 126]
  Nonzeros           :  159037
  RHS nonzeros       :     109

Variables            : Min LB: 0.000000         Max UB: 1.000000       
Objective nonzeros   : Min   : 1.000000         Max   : 1.000000       
Linear constraints   :
  Nonzeros           : Min   : 1.000000         Max   : 1715.000       
  RHS nonzeros       : Min   : 1.000000         Max   : 1.000000       
Tried aggregator 2 times.
MIP Presolve eliminated 208 rows and 1550 columns.
Aggregator did 15 substitutions.
Reduced MIP has 27 rows, 181 columns, and 375 nonzeros.
Reduced MIP has 180 binaries, 1 generals, 0 SOSs, and 0 indicators.
Presolve time = 0.01 sec. (9.85 ticks)
Found incumbent of value 15964.000000 after 0.01 sec. (13.65 ticks)
Probing time = 0.00 sec. (0.23 ticks)
Tried aggregator 1 time.
Reduced MIP has 27 rows, 181 columns, and 375 nonzeros.
Reduced MIP has 180 binaries, 1 generals, 0 SOSs, and 0 indicators.
Presolve time = 0.00 sec. (0.30 ticks)
Probing time = 0.00 sec. (0.23 ticks)
Clique table members: 12.
MIP emphasis: balance optimality and feasibility.
MIP search method: dynamic search.
Parallel mode: none, using 1 thread.
Root relaxation solution time = 0.00 sec. (0.17 ticks)

        Nodes                                         Cuts/
   Node  Left     Objective  IInf  Best Integer    Best Bound    ItCnt     Gap

*     0+    0                        15964.0000     4534.0000            71.60%
      0     0     4534.0000    12    15964.0000     4534.0000       25   71.60%
*     0+    0                         5130.0000     4534.0000            11.62%
      0     0     4534.0000     4     5130.0000    MIRcuts: 1       29   11.62%
*     0+    0                         4534.0000     4534.0000             0.00%
      0     0        cutoff           4534.0000     4534.0000       29    0.00%
Elapsed time = 0.02 sec. (15.96 ticks, tree = 0.01 MB, solutions = 3)

Mixed integer rounding cuts applied:  1

Root node processing (before b&c):
  Real time             =    0.02 sec. (16.04 ticks)
Sequential b&c:
  Real time             =    0.00 sec. (0.00 ticks)
                          ------------
Total (root+branch&cut) =    0.02 sec. (16.04 ticks)

Solution pool: 3 solutions saved.

MIP - Integer optimal solution:  Objective =  4.5340000000e+03
Solution time =    0.02 sec.  Iterations = 29  Nodes = 0
Deterministic time = 16.04 ticks  (1032.03 ticks/sec)


Incumbent solution written to file '/tmp/tmpFEHRlR.cplex.sol'.

Log started (V12.6.3.0) Fri Apr 20 17:53:11 2018

New value for default parallel thread count: 1

Problem '/tmp/tmphL4erF.pyomo.lp' read.
Read time = 0.02 sec. (2.18 ticks)

Problem name         : /tmp/tmphL4erF.pyomo.lp
Objective sense      : Minimize
Variables            :    1746  [Nneg: 1,  Binary: 1728,  General Integer: 17]
Objective nonzeros   :       1
Linear constraints   :     250  [Less: 124,  Equal: 126]
  Nonzeros           :  159037
  RHS nonzeros       :     109

Variables            : Min LB: 0.000000         Max UB: 1.000000       
Objective nonzeros   : Min   : 1.000000         Max   : 1.000000       
Linear constraints   :
  Nonzeros           : Min   : 1.000000         Max   : 1715.000       
  RHS nonzeros       : Min   : 1.000000         Max   : 1.000000       
Tried aggregator 2 times.
MIP Presolve eliminated 208 rows and 1550 columns.
Aggregator did 15 substitutions.
Reduced MIP has 27 rows, 181 columns, and 375 nonzeros.
Reduced MIP has 180 binaries, 1 generals, 0 SOSs, and 0 indicators.
Presolve time = 0.01 sec. (9.85 ticks)
Found incumbent of value 15964.000000 after 0.01 sec. (13.65 ticks)
Probing time = 0.00 sec. (0.23 ticks)
Tried aggregator 1 time.
Reduced MIP has 27 rows, 181 columns, and 375 nonzeros.
Reduced MIP has 180 binaries, 1 generals, 0 SOSs, and 0 indicators.
Presolve time = 0.00 sec. (0.30 ticks)
Probing time = 0.00 sec. (0.23 ticks)
Clique table members: 12.
MIP emphasis: balance optimality and feasibility.
MIP search method: dynamic search.
Parallel mode: none, using 1 thread.
Root relaxation solution time = 0.00 sec. (0.17 ticks)

        Nodes                                         Cuts/
   Node  Left     Objective  IInf  Best Integer    Best Bound    ItCnt     Gap

*     0+    0                        15964.0000     4534.0000            71.60%
      0     0     4534.0000    12    15964.0000     4534.0000       25   71.60%
*     0+    0                         5130.0000     4534.0000            11.62%
      0     0     4534.0000     4     5130.0000    MIRcuts: 1       29   11.62%
*     0+    0                         4534.0000     4534.0000             0.00%
      0     0        cutoff           4534.0000     4534.0000       29    0.00%
Elapsed time = 0.02 sec. (15.96 ticks, tree = 0.01 MB, solutions = 3)

Mixed integer rounding cuts applied:  1

Root node processing (before b&c):
  Real time             =    0.02 sec. (16.04 ticks)
Sequential b&c:
  Real time             =    0.00 sec. (0.00 ticks)
                          ------------
Total (root+branch&cut) =    0.02 sec. (16.04 ticks)

Solution pool: 3 solutions saved.

MIP - Integer optimal solution:  Objective =  4.5340000000e+03
Solution time =    0.02 sec.  Iterations = 29  Nodes = 0
Deterministic time = 16.04 ticks  (1005.82 ticks/sec)


Incumbent solution written to file '/tmp/tmpzWP8FH.cplex.sol'.
